(set-info :smt-lib-version 2.6)
(set-logic QF_SLIA)
(set-info :source |
Generated by: Joel Day, Thorsten Ehlers, Mitja Kulczynski, Federico Mora, Florin Manea, Dirk Nowotka, Danny Poulsen, Zhengyang Lu
Application: Test WOORPJE
Target solver: WOORPJE
Publications: Day, J. D., Ehlers, T., Kulczynski, M., Manea, F., Nowotka, D., & Poulsen, D. B. (2019). On solving word equations using SAT. In RP 2019
Description: Enriches a system of 30 word equations by suitable linear constraints
|)
(set-info :license "https://creativecommons.org/licenses/by/4.0/")
(set-info :category "random")
(set-info :status unknown)

(declare-fun I () String)
(declare-fun J () String)
(assert (= (str.++  "cdc" J J "d" J "cf" J "c" J "fa" I "fcddbdbbdddcff")  (str.++  "cdc" J J "d" J "cfac" J "f" J I "fcddbdbbdddcff") ))
(assert (= (str.++  J "edaed" J J "fcdedbeeddbcdcfddaeedfcdecceedcd")  (str.++  "aed" J "eda" J "fcdedbeeddbcdcfdd" J "eedfcdecceedcd") ))
(assert (= (str.++  "fbafe" J "cdccbcbbcaeaffecdabdd" J "deb" J "fecffdee")  (str.++  "fbafeacdccbcbbc" J "e" J "ffecdabddadebafecffdee") ))
(assert (<=(* (str.len J) 7) 14))
(check-sat)

(exit)
